min: c;

c = 3.30164777075638 * u4_t1_h1 + 3.71167148476875 * u4_t1_h2 + 2.85557507785144 * u4_t1_h3 + 3.6284778910875 * u4_t1_h4 + 3.6284778910875 * u4_t10_h4 + 3.25955933157492 * u4_t1_h5 + 3.25955933157492 * u4_t10_h5 + 3.65580697351066 * u4_t1_h6 + 3.65580697351066 * u4_t10_h6 + 4.03997505743875 * u4_t1_h7 + 4.03997505743875 * u4_t10_h7 + 5.78200708237994 * u4_t1_h8 + 5.78200708237994 * u4_t9_h8 + 5.78200708237994 * u4_t10_h8 + 4.5195735669219 * u4_t9_h9 + 4.5195735669219 * u4_t10_h9 + 5.87467272789969 * u4_t9_h10 + 5.87467272789969 * u4_t10_h10 + 4.23421487277965 * u4_t2_h11 + 4.23421487277965 * u4_t4_h11 + 4.23421487277965 * u4_t9_h11 + 4.23421487277965 * u4_t10_h11 + 5.78214568118539 * u4_t2_h12 + 5.78214568118539 * u4_t3_h12 + 5.78214568118539 * u4_t4_h12 + 5.78214568118539 * u4_t8_h12 + 5.78214568118539 * u4_t9_h12 + 5.78214568118539 * u4_t10_h12 + 4.08040834897188 * u4_t2_h13 + 4.08040834897188 * u4_t3_h13 + 4.08040834897188 * u4_t4_h13 + 4.08040834897188 * u4_t8_h13 + 4.08040834897188 * u4_t9_h13 + 5.3294951095193 * u4_t2_h14 + 5.3294951095193 * u4_t3_h14 + 5.3294951095193 * u4_t4_h14 + 5.3294951095193 * u4_t8_h14 + 5.3294951095193 * u4_t9_h14 + 6.63399989722173 * u4_t2_h15 + 6.63399989722173 * u4_t3_h15 + 6.63399989722173 * u4_t4_h15 + 6.63399989722173 * u4_t8_h15 + 6.63399989722173 * u4_t9_h15 + 5.95938014570468 * u4_t2_h16 + 5.95938014570468 * u4_t3_h16 + 5.95938014570468 * u4_t4_h16 + 5.95938014570468 * u4_t5_h16 + 5.95938014570468 * u4_t8_h16 + 5.95938014570468 * u4_t9_h16 + 6.67148994651973 * u4_t2_h17 + 6.67148994651973 * u4_t3_h17 + 6.67148994651973 * u4_t5_h17 + 6.67148994651973 * u4_t8_h17 + 6.67148994651973 * u4_t9_h17 + 6.89190265563253 * u4_t2_h18 + 6.89190265563253 * u4_t3_h18 + 6.89190265563253 * u4_t5_h18 + 6.89190265563253 * u4_t8_h18 + 6.89190265563253 * u4_t9_h18 + 5.7594990002889 * u4_t2_h19 + 5.7594990002889 * u4_t3_h19 + 5.7594990002889 * u4_t6_h19 + 5.7594990002889 * u4_t8_h19 + 5.7594990002889 * u4_t9_h19 + 5.67961350386613 * u4_t2_h20 + 5.67961350386613 * u4_t6_h20 + 5.67961350386613 * u4_t9_h20 + 5.37976538528396 * u4_t6_h21 + 6.00384698407837 * u4_t6_h22 + 6.00384698407837 * u4_t7_h22 + 5.1866562335595 * u4_t6_h23 + 5.1866562335595 * u4_t7_h23;
0 <= u4_t1_h1 <= 1;
0 <= u4_t1_h2 <= 1;
0 <= u4_t1_h3 <= 1;
0 <= u4_t1_h4 <= 1;
0 <= u4_t1_h5 <= 1;
0 <= u4_t1_h6 <= 1;
0 <= u4_t1_h7 <= 1;
0 <= u4_t1_h8 <= 1;
u4_t1_h1 + u4_t1_h2 + u4_t1_h3 + u4_t1_h4 + u4_t1_h5 + u4_t1_h6 + u4_t1_h7 + u4_t1_h8 = 1;
0 <= u4_t2_h11 <= 1;
0 <= u4_t2_h12 <= 1;
0 <= u4_t2_h13 <= 1;
0 <= u4_t2_h14 <= 1;
0 <= u4_t2_h15 <= 1;
0 <= u4_t2_h16 <= 1;
0 <= u4_t2_h17 <= 1;
0 <= u4_t2_h18 <= 1;
0 <= u4_t2_h19 <= 1;
0 <= u4_t2_h20 <= 1;
u4_t2_h11 + u4_t2_h12 + u4_t2_h13 + u4_t2_h14 + u4_t2_h15 + u4_t2_h16 + u4_t2_h17 + u4_t2_h18 + u4_t2_h19 + u4_t2_h20 = 2;
0 <= u4_t3_h12 <= 1;
0 <= u4_t3_h13 <= 1;
0 <= u4_t3_h14 <= 1;
0 <= u4_t3_h15 <= 1;
0 <= u4_t3_h16 <= 1;
0 <= u4_t3_h17 <= 1;
0 <= u4_t3_h18 <= 1;
0 <= u4_t3_h19 <= 1;
u4_t3_h12 + u4_t3_h13 + u4_t3_h14 + u4_t3_h15 + u4_t3_h16 + u4_t3_h17 + u4_t3_h18 + u4_t3_h19 = 3;
0 <= u4_t4_h11 <= 1;
0 <= u4_t4_h12 <= 1;
0 <= u4_t4_h13 <= 1;
0 <= u4_t4_h14 <= 1;
0 <= u4_t4_h15 <= 1;
0 <= u4_t4_h16 <= 1;
u4_t4_h11 + u4_t4_h12 + u4_t4_h13 + u4_t4_h14 + u4_t4_h15 + u4_t4_h16 = 3;
0 <= u4_t5_h16 <= 1;
0 <= u4_t5_h17 <= 1;
0 <= u4_t5_h18 <= 1;
u4_t5_h16 + u4_t5_h17 + u4_t5_h18 = 1;
0 <= u4_t6_h19 <= 1;
0 <= u4_t6_h20 <= 1;
0 <= u4_t6_h21 <= 1;
0 <= u4_t6_h22 <= 1;
0 <= u4_t6_h23 <= 1;
u4_t6_h19 + u4_t6_h20 + u4_t6_h21 + u4_t6_h22 + u4_t6_h23 = 3;
0 <= u4_t7_h22 <= 1;
0 <= u4_t7_h23 <= 1;
u4_t7_h22 + u4_t7_h23 = 1;
0 <= u4_t8_h12 <= 1;
0 <= u4_t8_h13 <= 1;
0 <= u4_t8_h14 <= 1;
0 <= u4_t8_h15 <= 1;
0 <= u4_t8_h16 <= 1;
0 <= u4_t8_h17 <= 1;
0 <= u4_t8_h18 <= 1;
0 <= u4_t8_h19 <= 1;
u4_t8_h12 + u4_t8_h13 + u4_t8_h14 + u4_t8_h15 + u4_t8_h16 + u4_t8_h17 + u4_t8_h18 + u4_t8_h19 = 2;
0 <= u4_t9_h8 <= 1;
0 <= u4_t9_h9 <= 1;
0 <= u4_t9_h10 <= 1;
0 <= u4_t9_h11 <= 1;
0 <= u4_t9_h12 <= 1;
0 <= u4_t9_h13 <= 1;
0 <= u4_t9_h14 <= 1;
0 <= u4_t9_h15 <= 1;
0 <= u4_t9_h16 <= 1;
0 <= u4_t9_h17 <= 1;
0 <= u4_t9_h18 <= 1;
0 <= u4_t9_h19 <= 1;
0 <= u4_t9_h20 <= 1;
u4_t9_h8 + u4_t9_h9 + u4_t9_h10 + u4_t9_h11 + u4_t9_h12 + u4_t9_h13 + u4_t9_h14 + u4_t9_h15 + u4_t9_h16 + u4_t9_h17 + u4_t9_h18 + u4_t9_h19 + u4_t9_h20 = 2;
0 <= u4_t10_h4 <= 1;
0 <= u4_t10_h5 <= 1;
0 <= u4_t10_h6 <= 1;
0 <= u4_t10_h7 <= 1;
0 <= u4_t10_h8 <= 1;
0 <= u4_t10_h9 <= 1;
0 <= u4_t10_h10 <= 1;
0 <= u4_t10_h11 <= 1;
0 <= u4_t10_h12 <= 1;
u4_t10_h4 + u4_t10_h5 + u4_t10_h6 + u4_t10_h7 + u4_t10_h8 + u4_t10_h9 + u4_t10_h10 + u4_t10_h11 + u4_t10_h12 = 2;
